c t mc
c file track1_049.cnf
p cnf 110 774
-1 0
-56 0
37 0
-92 0
-47 0
102 0
1 56 39 94 0
-1 56 -39 94 0
1 -56 39 -94 0
-1 -56 -39 -94 0
1 56 49 104 0
-1 56 -49 104 0
1 -56 49 -104 0
-1 -56 -49 -104 0
1 56 25 80 0
-1 56 -25 80 0
1 -56 25 -80 0
-1 -56 -25 -80 0
1 56 37 92 0
-1 56 -37 92 0
1 -56 37 -92 0
-1 -56 -37 -92 0
1 56 13 68 0
-1 56 -13 68 0
1 -56 13 -68 0
-1 -56 -13 -68 0
1 56 55 110 0
-1 56 -55 110 0
1 -56 55 -110 0
-1 -56 -55 -110 0
1 56 47 102 0
-1 56 -47 102 0
1 -56 47 -102 0
-1 -56 -47 -102 0
2 57 13 68 0
-2 57 -13 68 0
2 -57 13 -68 0
-2 -57 -13 -68 0
2 57 27 82 0
-2 57 -27 82 0
2 -57 27 -82 0
-2 -57 -27 -82 0
2 57 33 88 0
-2 57 -33 88 0
2 -57 33 -88 0
-2 -57 -33 -88 0
2 57 37 92 0
-2 57 -37 92 0
2 -57 37 -92 0
-2 -57 -37 -92 0
2 57 22 77 0
-2 57 -22 77 0
2 -57 22 -77 0
-2 -57 -22 -77 0
2 57 24 79 0
-2 57 -24 79 0
2 -57 24 -79 0
-2 -57 -24 -79 0
2 57 11 66 0
-2 57 -11 66 0
2 -57 11 -66 0
-2 -57 -11 -66 0
3 58 39 94 0
-3 58 -39 94 0
3 -58 39 -94 0
-3 -58 -39 -94 0
3 58 13 68 0
-3 58 -13 68 0
3 -58 13 -68 0
-3 -58 -13 -68 0
3 58 24 79 0
-3 58 -24 79 0
3 -58 24 -79 0
-3 -58 -24 -79 0
3 58 4 59 0
-3 58 -4 59 0
3 -58 4 -59 0
-3 -58 -4 -59 0
3 58 50 105 0
-3 58 -50 105 0
3 -58 50 -105 0
-3 -58 -50 -105 0
3 58 39 94 0
-3 58 -39 94 0
3 -58 39 -94 0
-3 -58 -39 -94 0
3 58 26 81 0
-3 58 -26 81 0
3 -58 26 -81 0
-3 -58 -26 -81 0
4 59 40 95 0
-4 59 -40 95 0
4 -59 40 -95 0
-4 -59 -40 -95 0
4 59 8 63 0
-4 59 -8 63 0
4 -59 8 -63 0
-4 -59 -8 -63 0
4 59 47 102 0
-4 59 -47 102 0
4 -59 47 -102 0
-4 -59 -47 -102 0
4 59 36 91 0
-4 59 -36 91 0
4 -59 36 -91 0
-4 -59 -36 -91 0
4 59 5 60 0
-4 59 -5 60 0
4 -59 5 -60 0
-4 -59 -5 -60 0
4 59 42 97 0
-4 59 -42 97 0
4 -59 42 -97 0
-4 -59 -42 -97 0
5 60 9 64 0
-5 60 -9 64 0
5 -60 9 -64 0
-5 -60 -9 -64 0
5 60 32 87 0
-5 60 -32 87 0
5 -60 32 -87 0
-5 -60 -32 -87 0
5 60 8 63 0
-5 60 -8 63 0
5 -60 8 -63 0
-5 -60 -8 -63 0
5 60 16 71 0
-5 60 -16 71 0
5 -60 16 -71 0
-5 -60 -16 -71 0
5 60 10 65 0
-5 60 -10 65 0
5 -60 10 -65 0
-5 -60 -10 -65 0
5 60 8 63 0
-5 60 -8 63 0
5 -60 8 -63 0
-5 -60 -8 -63 0
6 61 46 101 0
-6 61 -46 101 0
6 -61 46 -101 0
-6 -61 -46 -101 0
6 61 25 80 0
-6 61 -25 80 0
6 -61 25 -80 0
-6 -61 -25 -80 0
6 61 38 93 0
-6 61 -38 93 0
6 -61 38 -93 0
-6 -61 -38 -93 0
6 61 8 63 0
-6 61 -8 63 0
6 -61 8 -63 0
-6 -61 -8 -63 0
6 61 27 82 0
-6 61 -27 82 0
6 -61 27 -82 0
-6 -61 -27 -82 0
6 61 14 69 0
-6 61 -14 69 0
6 -61 14 -69 0
-6 -61 -14 -69 0
6 61 10 65 0
-6 61 -10 65 0
6 -61 10 -65 0
-6 -61 -10 -65 0
7 62 51 106 0
-7 62 -51 106 0
7 -62 51 -106 0
-7 -62 -51 -106 0
7 62 30 85 0
-7 62 -30 85 0
7 -62 30 -85 0
-7 -62 -30 -85 0
7 62 42 97 0
-7 62 -42 97 0
7 -62 42 -97 0
-7 -62 -42 -97 0
7 62 14 69 0
-7 62 -14 69 0
7 -62 14 -69 0
-7 -62 -14 -69 0
7 62 51 106 0
-7 62 -51 106 0
7 -62 51 -106 0
-7 -62 -51 -106 0
7 62 53 108 0
-7 62 -53 108 0
7 -62 53 -108 0
-7 -62 -53 -108 0
7 62 27 82 0
-7 62 -27 82 0
7 -62 27 -82 0
-7 -62 -27 -82 0
8 63 41 96 0
-8 63 -41 96 0
8 -63 41 -96 0
-8 -63 -41 -96 0
8 63 33 88 0
-8 63 -33 88 0
8 -63 33 -88 0
-8 -63 -33 -88 0
8 63 19 74 0
-8 63 -19 74 0
8 -63 19 -74 0
-8 -63 -19 -74 0
9 64 34 89 0
-9 64 -34 89 0
9 -64 34 -89 0
-9 -64 -34 -89 0
9 64 46 101 0
-9 64 -46 101 0
9 -64 46 -101 0
-9 -64 -46 -101 0
9 64 13 68 0
-9 64 -13 68 0
9 -64 13 -68 0
-9 -64 -13 -68 0
9 64 43 98 0
-9 64 -43 98 0
9 -64 43 -98 0
-9 -64 -43 -98 0
9 64 19 74 0
-9 64 -19 74 0
9 -64 19 -74 0
-9 -64 -19 -74 0
9 64 24 79 0
-9 64 -24 79 0
9 -64 24 -79 0
-9 -64 -24 -79 0
10 65 46 101 0
-10 65 -46 101 0
10 -65 46 -101 0
-10 -65 -46 -101 0
10 65 38 93 0
-10 65 -38 93 0
10 -65 38 -93 0
-10 -65 -38 -93 0
10 65 17 72 0
-10 65 -17 72 0
10 -65 17 -72 0
-10 -65 -17 -72 0
10 65 55 110 0
-10 65 -55 110 0
10 -65 55 -110 0
-10 -65 -55 -110 0
10 65 20 75 0
-10 65 -20 75 0
10 -65 20 -75 0
-10 -65 -20 -75 0
11 66 49 104 0
-11 66 -49 104 0
11 -66 49 -104 0
-11 -66 -49 -104 0
11 66 29 84 0
-11 66 -29 84 0
11 -66 29 -84 0
-11 -66 -29 -84 0
11 66 54 109 0
-11 66 -54 109 0
11 -66 54 -109 0
-11 -66 -54 -109 0
11 66 15 70 0
-11 66 -15 70 0
11 -66 15 -70 0
-11 -66 -15 -70 0
11 66 44 99 0
-11 66 -44 99 0
11 -66 44 -99 0
-11 -66 -44 -99 0
11 66 42 97 0
-11 66 -42 97 0
11 -66 42 -97 0
-11 -66 -42 -97 0
12 67 26 81 0
-12 67 -26 81 0
12 -67 26 -81 0
-12 -67 -26 -81 0
12 67 30 85 0
-12 67 -30 85 0
12 -67 30 -85 0
-12 -67 -30 -85 0
12 67 13 68 0
-12 67 -13 68 0
12 -67 13 -68 0
-12 -67 -13 -68 0
12 67 50 105 0
-12 67 -50 105 0
12 -67 50 -105 0
-12 -67 -50 -105 0
12 67 18 73 0
-12 67 -18 73 0
12 -67 18 -73 0
-12 -67 -18 -73 0
12 67 21 76 0
-12 67 -21 76 0
12 -67 21 -76 0
-12 -67 -21 -76 0
12 67 48 103 0
-12 67 -48 103 0
12 -67 48 -103 0
-12 -67 -48 -103 0
13 68 26 81 0
-13 68 -26 81 0
13 -68 26 -81 0
-13 -68 -26 -81 0
13 68 24 79 0
-13 68 -24 79 0
13 -68 24 -79 0
-13 -68 -24 -79 0
14 69 50 105 0
-14 69 -50 105 0
14 -69 50 -105 0
-14 -69 -50 -105 0
14 69 42 97 0
-14 69 -42 97 0
14 -69 42 -97 0
-14 -69 -42 -97 0
14 69 37 92 0
-14 69 -37 92 0
14 -69 37 -92 0
-14 -69 -37 -92 0
14 69 42 97 0
-14 69 -42 97 0
14 -69 42 -97 0
-14 -69 -42 -97 0
14 69 49 104 0
-14 69 -49 104 0
14 -69 49 -104 0
-14 -69 -49 -104 0
15 70 43 98 0
-15 70 -43 98 0
15 -70 43 -98 0
-15 -70 -43 -98 0
15 70 36 91 0
-15 70 -36 91 0
15 -70 36 -91 0
-15 -70 -36 -91 0
15 70 35 90 0
-15 70 -35 90 0
15 -70 35 -90 0
-15 -70 -35 -90 0
15 70 38 93 0
-15 70 -38 93 0
15 -70 38 -93 0
-15 -70 -38 -93 0
15 70 17 72 0
-15 70 -17 72 0
15 -70 17 -72 0
-15 -70 -17 -72 0
15 70 28 83 0
-15 70 -28 83 0
15 -70 28 -83 0
-15 -70 -28 -83 0
16 71 48 103 0
-16 71 -48 103 0
16 -71 48 -103 0
-16 -71 -48 -103 0
16 71 39 94 0
-16 71 -39 94 0
16 -71 39 -94 0
-16 -71 -39 -94 0
16 71 31 86 0
-16 71 -31 86 0
16 -71 31 -86 0
-16 -71 -31 -86 0
16 71 52 107 0
-16 71 -52 107 0
16 -71 52 -107 0
-16 -71 -52 -107 0
16 71 23 78 0
-16 71 -23 78 0
16 -71 23 -78 0
-16 -71 -23 -78 0
16 71 19 74 0
-16 71 -19 74 0
16 -71 19 -74 0
-16 -71 -19 -74 0
17 72 20 75 0
-17 72 -20 75 0
17 -72 20 -75 0
-17 -72 -20 -75 0
17 72 30 85 0
-17 72 -30 85 0
17 -72 30 -85 0
-17 -72 -30 -85 0
17 72 47 102 0
-17 72 -47 102 0
17 -72 47 -102 0
-17 -72 -47 -102 0
17 72 45 100 0
-17 72 -45 100 0
17 -72 45 -100 0
-17 -72 -45 -100 0
17 72 21 76 0
-17 72 -21 76 0
17 -72 21 -76 0
-17 -72 -21 -76 0
18 73 27 82 0
-18 73 -27 82 0
18 -73 27 -82 0
-18 -73 -27 -82 0
18 73 37 92 0
-18 73 -37 92 0
18 -73 37 -92 0
-18 -73 -37 -92 0
18 73 55 110 0
-18 73 -55 110 0
18 -73 55 -110 0
-18 -73 -55 -110 0
18 73 24 79 0
-18 73 -24 79 0
18 -73 24 -79 0
-18 -73 -24 -79 0
18 73 20 75 0
-18 73 -20 75 0
18 -73 20 -75 0
-18 -73 -20 -75 0
18 73 35 90 0
-18 73 -35 90 0
18 -73 35 -90 0
-18 -73 -35 -90 0
19 74 21 76 0
-19 74 -21 76 0
19 -74 21 -76 0
-19 -74 -21 -76 0
19 74 29 84 0
-19 74 -29 84 0
19 -74 29 -84 0
-19 -74 -29 -84 0
19 74 36 91 0
-19 74 -36 91 0
19 -74 36 -91 0
-19 -74 -36 -91 0
19 74 34 89 0
-19 74 -34 89 0
19 -74 34 -89 0
-19 -74 -34 -89 0
20 75 32 87 0
-20 75 -32 87 0
20 -75 32 -87 0
-20 -75 -32 -87 0
20 75 54 109 0
-20 75 -54 109 0
20 -75 54 -109 0
-20 -75 -54 -109 0
20 75 36 91 0
-20 75 -36 91 0
20 -75 36 -91 0
-20 -75 -36 -91 0
20 75 52 107 0
-20 75 -52 107 0
20 -75 52 -107 0
-20 -75 -52 -107 0
21 76 38 93 0
-21 76 -38 93 0
21 -76 38 -93 0
-21 -76 -38 -93 0
21 76 32 87 0
-21 76 -32 87 0
21 -76 32 -87 0
-21 -76 -32 -87 0
21 76 49 104 0
-21 76 -49 104 0
21 -76 49 -104 0
-21 -76 -49 -104 0
21 76 55 110 0
-21 76 -55 110 0
21 -76 55 -110 0
-21 -76 -55 -110 0
22 77 51 106 0
-22 77 -51 106 0
22 -77 51 -106 0
-22 -77 -51 -106 0
22 77 46 101 0
-22 77 -46 101 0
22 -77 46 -101 0
-22 -77 -46 -101 0
22 77 30 85 0
-22 77 -30 85 0
22 -77 30 -85 0
-22 -77 -30 -85 0
22 77 52 107 0
-22 77 -52 107 0
22 -77 52 -107 0
-22 -77 -52 -107 0
22 77 33 88 0
-22 77 -33 88 0
22 -77 33 -88 0
-22 -77 -33 -88 0
22 77 25 80 0
-22 77 -25 80 0
22 -77 25 -80 0
-22 -77 -25 -80 0
23 78 25 80 0
-23 78 -25 80 0
23 -78 25 -80 0
-23 -78 -25 -80 0
23 78 45 100 0
-23 78 -45 100 0
23 -78 45 -100 0
-23 -78 -45 -100 0
23 78 28 83 0
-23 78 -28 83 0
23 -78 28 -83 0
-23 -78 -28 -83 0
23 78 53 108 0
-23 78 -53 108 0
23 -78 53 -108 0
-23 -78 -53 -108 0
23 78 30 85 0
-23 78 -30 85 0
23 -78 30 -85 0
-23 -78 -30 -85 0
23 78 26 81 0
-23 78 -26 81 0
23 -78 26 -81 0
-23 -78 -26 -81 0
24 79 44 99 0
-24 79 -44 99 0
24 -79 44 -99 0
-24 -79 -44 -99 0
24 79 34 89 0
-24 79 -34 89 0
24 -79 34 -89 0
-24 -79 -34 -89 0
25 80 40 95 0
-25 80 -40 95 0
25 -80 40 -95 0
-25 -80 -40 -95 0
25 80 43 98 0
-25 80 -43 98 0
25 -80 43 -98 0
-25 -80 -43 -98 0
25 80 48 103 0
-25 80 -48 103 0
25 -80 48 -103 0
-25 -80 -48 -103 0
26 81 29 84 0
-26 81 -29 84 0
26 -81 29 -84 0
-26 -81 -29 -84 0
26 81 55 110 0
-26 81 -55 110 0
26 -81 55 -110 0
-26 -81 -55 -110 0
26 81 55 110 0
-26 81 -55 110 0
26 -81 55 -110 0
-26 -81 -55 -110 0
27 82 28 83 0
-27 82 -28 83 0
27 -82 28 -83 0
-27 -82 -28 -83 0
27 82 48 103 0
-27 82 -48 103 0
27 -82 48 -103 0
-27 -82 -48 -103 0
27 82 29 84 0
-27 82 -29 84 0
27 -82 29 -84 0
-27 -82 -29 -84 0
28 83 53 108 0
-28 83 -53 108 0
28 -83 53 -108 0
-28 -83 -53 -108 0
28 83 45 100 0
-28 83 -45 100 0
28 -83 45 -100 0
-28 -83 -45 -100 0
28 83 48 103 0
-28 83 -48 103 0
28 -83 48 -103 0
-28 -83 -48 -103 0
28 83 51 106 0
-28 83 -51 106 0
28 -83 51 -106 0
-28 -83 -51 -106 0
29 84 41 96 0
-29 84 -41 96 0
29 -84 41 -96 0
-29 -84 -41 -96 0
29 84 40 95 0
-29 84 -40 95 0
29 -84 40 -95 0
-29 -84 -40 -95 0
29 84 32 87 0
-29 84 -32 87 0
29 -84 32 -87 0
-29 -84 -32 -87 0
30 85 45 100 0
-30 85 -45 100 0
30 -85 45 -100 0
-30 -85 -45 -100 0
30 85 54 109 0
-30 85 -54 109 0
30 -85 54 -109 0
-30 -85 -54 -109 0
31 86 36 91 0
-31 86 -36 91 0
31 -86 36 -91 0
-31 -86 -36 -91 0
31 86 43 98 0
-31 86 -43 98 0
31 -86 43 -98 0
-31 -86 -43 -98 0
31 86 34 89 0
-31 86 -34 89 0
31 -86 34 -89 0
-31 -86 -34 -89 0
31 86 51 106 0
-31 86 -51 106 0
31 -86 51 -106 0
-31 -86 -51 -106 0
31 86 41 96 0
-31 86 -41 96 0
31 -86 41 -96 0
-31 -86 -41 -96 0
31 86 47 102 0
-31 86 -47 102 0
31 -86 47 -102 0
-31 -86 -47 -102 0
32 87 38 93 0
-32 87 -38 93 0
32 -87 38 -93 0
-32 -87 -38 -93 0
32 87 53 108 0
-32 87 -53 108 0
32 -87 53 -108 0
-32 -87 -53 -108 0
32 87 47 102 0
-32 87 -47 102 0
32 -87 47 -102 0
-32 -87 -47 -102 0
33 88 39 94 0
-33 88 -39 94 0
33 -88 39 -94 0
-33 -88 -39 -94 0
33 88 52 107 0
-33 88 -52 107 0
33 -88 52 -107 0
-33 -88 -52 -107 0
33 88 40 95 0
-33 88 -40 95 0
33 -88 40 -95 0
-33 -88 -40 -95 0
33 88 55 110 0
-33 88 -55 110 0
33 -88 55 -110 0
-33 -88 -55 -110 0
34 89 35 90 0
-34 89 -35 90 0
34 -89 35 -90 0
-34 -89 -35 -90 0
34 89 50 105 0
-34 89 -50 105 0
34 -89 50 -105 0
-34 -89 -50 -105 0
34 89 46 101 0
-34 89 -46 101 0
34 -89 46 -101 0
-34 -89 -46 -101 0
35 90 51 106 0
-35 90 -51 106 0
35 -90 51 -106 0
-35 -90 -51 -106 0
35 90 49 104 0
-35 90 -49 104 0
35 -90 49 -104 0
-35 -90 -49 -104 0
35 90 53 108 0
-35 90 -53 108 0
35 -90 53 -108 0
-35 -90 -53 -108 0
35 90 40 95 0
-35 90 -40 95 0
35 -90 40 -95 0
-35 -90 -40 -95 0
36 91 38 93 0
-36 91 -38 93 0
36 -91 38 -93 0
-36 -91 -38 -93 0
36 91 44 99 0
-36 91 -44 99 0
36 -91 44 -99 0
-36 -91 -44 -99 0
37 92 47 102 0
-37 92 -47 102 0
37 -92 47 -102 0
-37 -92 -47 -102 0
37 92 42 97 0
-37 92 -42 97 0
37 -92 42 -97 0
-37 -92 -42 -97 0
37 92 41 96 0
-37 92 -41 96 0
37 -92 41 -96 0
-37 -92 -41 -96 0
38 93 45 100 0
-38 93 -45 100 0
38 -93 45 -100 0
-38 -93 -45 -100 0
39 94 46 101 0
-39 94 -46 101 0
39 -94 46 -101 0
-39 -94 -46 -101 0
40 95 47 102 0
-40 95 -47 102 0
40 -95 47 -102 0
-40 -95 -47 -102 0
40 95 41 96 0
-40 95 -41 96 0
40 -95 41 -96 0
-40 -95 -41 -96 0
41 96 53 108 0
-41 96 -53 108 0
41 -96 53 -108 0
-41 -96 -53 -108 0
41 96 52 107 0
-41 96 -52 107 0
41 -96 52 -107 0
-41 -96 -52 -107 0
42 97 45 100 0
-42 97 -45 100 0
42 -97 45 -100 0
-42 -97 -45 -100 0
43 98 49 104 0
-43 98 -49 104 0
43 -98 49 -104 0
-43 -98 -49 -104 0
43 98 44 99 0
-43 98 -44 99 0
43 -98 44 -99 0
-43 -98 -44 -99 0
43 98 50 105 0
-43 98 -50 105 0
43 -98 50 -105 0
-43 -98 -50 -105 0
44 99 48 103 0
-44 99 -48 103 0
44 -99 48 -103 0
-44 -99 -48 -103 0
44 99 54 109 0
-44 99 -54 109 0
44 -99 54 -109 0
-44 -99 -54 -109 0
44 99 54 109 0
-44 99 -54 109 0
44 -99 54 -109 0
-44 -99 -54 -109 0
45 100 49 104 0
-45 100 -49 104 0
45 -100 49 -104 0
-45 -100 -49 -104 0
46 101 50 105 0
-46 101 -50 105 0
46 -101 50 -105 0
-46 -101 -50 -105 0
48 103 54 109 0
-48 103 -54 109 0
48 -103 54 -109 0
-48 -103 -54 -109 0
50 105 53 108 0
-50 105 -53 108 0
50 -105 53 -108 0
-50 -105 -53 -108 0
51 106 52 107 0
-51 106 -52 107 0
51 -106 52 -107 0
-51 -106 -52 -107 0
52 107 54 109 0
-52 107 -54 109 0
52 -107 54 -109 0
-52 -107 -54 -109 0
